array [1..5] of int: X_INTRODUCED_15_ = [-1,-1,-1,-1,-1];
array [1..6] of int: X_INTRODUCED_27_ = [1,-1000000,-2000000,-1500000,-2400000,-1800000];
array [1..6] of int: X_INTRODUCED_37_ = [1,-4,-6,-4,-8,-6];
var int: X_INTRODUCED_0_;
var int: X_INTRODUCED_1_;
var int: X_INTRODUCED_2_;
var int: X_INTRODUCED_3_;
var int: X_INTRODUCED_4_;
var int: total_vehicle_cost:: is_defined_var;
var int: monthly_fuel_cost;
var int: total_seats:: is_defined_var;
var float: X_INTRODUCED_5_:: is_defined_var;
var float: X_INTRODUCED_12_:: is_defined_var:: var_is_introduced;
var float: X_INTRODUCED_13_:: is_defined_var:: var_is_introduced;
var float: X_INTRODUCED_38_:: is_defined_var:: var_is_introduced;
var float: X_INTRODUCED_43_:: is_defined_var:: var_is_introduced;
var float: X_INTRODUCED_48_:: is_defined_var:: var_is_introduced;
var float: X_INTRODUCED_53_:: is_defined_var:: var_is_introduced;
var float: X_INTRODUCED_57_:: is_defined_var:: var_is_introduced;
var float: X_INTRODUCED_63_:: is_defined_var:: var_is_introduced;
constraint int_lin_le(X_INTRODUCED_15_,[X_INTRODUCED_0_,X_INTRODUCED_1_,X_INTRODUCED_2_,X_INTRODUCED_3_,X_INTRODUCED_4_],0);
constraint int_lin_eq(X_INTRODUCED_27_,[total_vehicle_cost,X_INTRODUCED_0_,X_INTRODUCED_1_,X_INTRODUCED_2_,X_INTRODUCED_3_,X_INTRODUCED_4_],0):: defines_var(total_vehicle_cost);
constraint int_le(total_vehicle_cost,20000000);
constraint int_lin_eq(X_INTRODUCED_37_,[total_seats,X_INTRODUCED_0_,X_INTRODUCED_1_,X_INTRODUCED_2_,X_INTRODUCED_3_,X_INTRODUCED_4_],0):: defines_var(total_seats);
constraint float_eq(X_INTRODUCED_12_,X_INTRODUCED_63_);
constraint int_le(monthly_fuel_cost,200000);
constraint int_le(0,X_INTRODUCED_0_);
constraint int_le(0,X_INTRODUCED_1_);
constraint int_le(0,X_INTRODUCED_2_);
constraint int_le(0,X_INTRODUCED_3_);
constraint int_le(0,X_INTRODUCED_4_);
constraint int_le(total_vehicle_cost,20000000);
constraint int_le(monthly_fuel_cost,200000);
constraint int_le(30,total_seats);
constraint float_lin_eq([-0.8,-0.2,-1.0],[X_INTRODUCED_12_,X_INTRODUCED_13_,X_INTRODUCED_5_],-4160000.0):: defines_var(X_INTRODUCED_5_);
constraint int2float(monthly_fuel_cost,X_INTRODUCED_12_):: defines_var(X_INTRODUCED_12_);
constraint int2float(total_vehicle_cost,X_INTRODUCED_13_):: defines_var(X_INTRODUCED_13_);
constraint int2float(X_INTRODUCED_0_,X_INTRODUCED_38_):: defines_var(X_INTRODUCED_38_);
constraint int2float(X_INTRODUCED_1_,X_INTRODUCED_43_):: defines_var(X_INTRODUCED_43_);
constraint int2float(X_INTRODUCED_2_,X_INTRODUCED_48_):: defines_var(X_INTRODUCED_48_);
constraint int2float(X_INTRODUCED_3_,X_INTRODUCED_53_):: defines_var(X_INTRODUCED_53_);
constraint int2float(X_INTRODUCED_4_,X_INTRODUCED_57_):: defines_var(X_INTRODUCED_57_);
constraint float_lin_eq([8181.818181818182,5625.0,4821.428571428572,5192.307692307693,9375.0,-1.0],[X_INTRODUCED_38_,X_INTRODUCED_43_,X_INTRODUCED_48_,X_INTRODUCED_53_,X_INTRODUCED_57_,X_INTRODUCED_63_],-0.0):: defines_var(X_INTRODUCED_63_);
solve  satisfy;
